c "170437.clq"
p edge 80 304
e 1 5
e 1 8
e 1 33
e 2 5
e 2 6
e 2 7
e 2 8
e 2 9
e 2 10
e 2 14
e 2 18
e 2 20
e 2 23
e 2 24
e 2 27
e 2 29
e 2 43
e 2 47
e 2 50
e 2 51
e 2 52
e 2 70
e 2 75
e 2 79
e 2 80
e 3 5
e 3 6
e 3 7
e 3 18
e 3 35
e 3 38
e 4 5
e 4 6
e 4 9
e 4 12
e 4 14
e 4 20
e 4 21
e 4 31
e 4 32
e 4 37
e 4 38
e 4 42
e 4 50
e 4 51
e 4 70
e 4 72
e 5 6
e 5 7
e 5 8
e 5 10
e 5 12
e 5 13
e 5 15
e 5 16
e 5 18
e 5 19
e 5 23
e 5 25
e 5 27
e 5 28
e 5 29
e 5 31
e 5 32
e 5 34
e 5 36
e 5 38
e 5 39
e 5 41
e 5 42
e 5 43
e 5 45
e 5 48
e 5 55
e 5 58
e 5 60
e 5 61
e 5 65
e 5 67
e 5 69
e 5 70
e 5 75
e 5 76
e 5 78
e 6 7
e 6 8
e 6 9
e 6 10
e 6 11
e 6 12
e 6 15
e 6 17
e 6 22
e 6 27
e 6 28
e 6 29
e 6 30
e 6 36
e 6 37
e 6 46
e 6 51
e 6 59
e 6 65
e 6 77
e 6 79
e 7 11
e 7 13
e 7 16
e 7 21
e 7 22
e 7 26
e 7 30
e 7 32
e 7 33
e 7 35
e 7 37
e 7 52
e 7 55
e 7 72
e 7 77
e 8 9
e 8 10
e 8 14
e 8 15
e 8 16
e 8 17
e 8 19
e 8 20
e 8 21
e 8 22
e 8 24
e 8 26
e 8 40
e 8 45
e 8 54
e 8 58
e 8 76
e 8 80
e 9 11
e 9 12
e 9 13
e 9 15
e 9 16
e 9 20
e 9 25
e 9 33
e 9 36
e 9 38
e 9 43
e 9 45
e 9 47
e 9 56
e 9 57
e 9 62
e 9 78
e 10 11
e 10 21
e 10 48
e 11 13
e 11 17
e 11 18
e 11 19
e 11 23
e 11 34
e 11 41
e 12 14
e 12 26
e 12 28
e 12 34
e 12 40
e 12 66
e 13 49
e 13 56
e 13 75
e 14 17
e 14 24
e 14 27
e 14 31
e 14 41
e 14 52
e 15 19
e 15 22
e 15 28
e 15 30
e 15 35
e 15 46
e 15 59
e 15 62
e 16 46
e 16 64
e 16 72
e 17 32
e 17 53
e 17 60
e 18 24
e 18 37
e 18 49
e 19 25
e 19 26
e 19 35
e 19 46
e 19 48
e 19 50
e 19 61
e 19 63
e 19 64
e 19 65
e 19 68
e 19 71
e 19 73
e 19 74
e 19 77
e 19 78
e 20 23
e 20 45
e 20 49
e 21 42
e 21 61
e 22 34
e 22 50
e 22 52
e 22 68
e 23 25
e 23 29
e 23 39
e 23 40
e 23 47
e 23 54
e 23 69
e 24 53
e 25 36
e 25 44
e 25 67
e 26 31
e 26 44
e 26 48
e 26 58
e 26 63
e 26 66
e 26 73
e 27 30
e 27 39
e 27 40
e 27 41
e 27 53
e 27 55
e 27 71
e 27 73
e 28 33
e 28 49
e 28 53
e 28 59
e 29 51
e 30 42
e 30 54
e 30 80
e 31 43
e 31 44
e 31 57
e 31 60
e 31 71
e 33 39
e 34 63
e 35 47
e 35 64
e 38 55
e 38 61
e 38 64
e 39 44
e 40 56
e 40 67
e 42 57
e 42 59
e 42 70
e 42 71
e 42 74
e 42 79
e 43 54
e 43 63
e 45 57
e 45 60
e 45 72
e 45 76
e 46 67
e 46 79
e 47 62
e 48 77
e 49 65
e 49 74
e 51 56
e 51 76
e 51 78
e 52 58
e 52 68
e 53 66
e 54 62
e 54 74
e 54 80
e 56 68
e 56 75
e 58 69
e 61 69
e 62 73
e 63 66
